c uprop, v00.0, 
c reading from data/prog540.c.cnf
c done reading: 0.003309
p cnf 131 552
-52 -66 0
52 66 0
-41 -61 0
41 61 0
-54 -56 0
54 56 0
-45 -49 0
45 49 0
-43 -58 0
43 58 0
-38 -47 0
38 47 0
-63 -69 0
63 69 0
56 -70 0
-56 70 0
-56 -71 0
56 71 0
-49 -66 72 0
-49 -70 72 0
-66 -70 72 0
49 66 -72 0
49 70 -72 0
66 70 -72 0
49 -72 -73 0
66 -72 -73 0
70 -72 -73 0
-49 72 73 0
-66 72 73 0
-70 72 73 0
-49 -66 -70 73 0
49 66 70 -73 0
-43 -61 74 0
-43 -72 74 0
-61 -72 74 0
43 61 -74 0
43 72 -74 0
61 72 -74 0
43 -74 -75 0
61 -74 -75 0
72 -74 -75 0
-43 74 75 0
-61 74 75 0
-72 74 75 0
-43 -61 -72 75 0
43 61 72 -75 0
-38 -56 76 0
-38 -74 76 0
-56 -74 76 0
38 56 -76 0
38 74 -76 0
56 74 -76 0
38 -76 -77 0
56 -76 -77 0
74 -76 -77 0
-38 76 77 0
-56 76 77 0
-74 76 77 0
-38 -56 -74 77 0
38 56 74 -77 0
-49 -63 78 0
-63 -76 78 0
-49 -76 78 0
49 63 -78 0
63 76 -78 0
49 76 -78 0
63 -78 -79 0
49 -78 -79 0
76 -78 -79 0
-63 78 79 0
-49 78 79 0
-76 78 79 0
-49 -63 -76 79 0
49 63 76 -79 0
43 -80 0
78 -80 0
-43 -78 80 0
-43 -78 -81 0
43 78 -81 0
-43 78 81 0
43 -78 81 0
38 -82 0
80 -82 0
-38 -80 82 0
-38 -68 -80 0
38 -68 80 0
-38 68 80 0
38 68 -80 0
63 -65 0
-65 82 0
-63 65 -82 0
-60 -63 -82 0
-60 63 82 0
60 -63 82 0
60 63 -82 0
-48 -66 0
48 66 0
-37 -61 0
37 61 0
-36 -71 0
36 71 0
-33 -73 0
33 73 0
-30 -75 0
30 75 0
-27 -77 0
27 77 0
-24 -79 0
24 79 0
-23 -81 0
23 81 0
-22 -68 0
22 68 0
-21 -60 0
21 60 0
-20 -65 0
20 65 0
-19 -34 0
-17 -19 0
17 19 34 0
-16 17 34 0
-16 -17 -34 0
16 17 -34 0
16 -17 34 0
-15 19 0
-15 -31 0
15 -19 31 0
-14 -19 31 0
-14 19 -31 0
14 19 31 0
14 -19 -31 0
-13 15 0
-11 -13 0
11 13 -15 0
-10 11 -15 0
-10 -11 15 0
10 11 15 0
10 -11 -15 0
-9 13 0
-9 -28 0
9 -13 28 0
-8 -13 28 0
-8 13 -28 0
8 13 28 0
8 -13 -28 0
9 -51 0
-6 -51 0
6 -9 51 0
-5 6 -9 0
-5 -6 9 0
5 6 9 0
5 -6 -9 0
-40 51 0
-25 -40 0
25 40 -51 0
25 -51 -83 0
-25 51 -83 0
25 51 83 0
-25 -51 83 0
40 -84 0
-84 -85 0
-40 84 85 0
-40 85 -87 0
40 -85 -87 0
40 85 87 0
-40 -85 87 0
17 -88 0
34 -88 0
-17 -34 88 0
-17 -34 -89 0
17 34 -89 0
-17 34 89 0
17 -34 89 0
-17 -31 90 0
-31 -88 90 0
-17 -88 90 0
17 31 -90 0
31 88 -90 0
17 88 -90 0
31 -90 -91 0
17 -90 -91 0
88 -90 -91 0
-31 90 91 0
-17 90 91 0
-88 90 91 0
-17 -31 -88 91 0
17 31 88 -91 0
-11 -31 92 0
-11 -90 92 0
-31 -90 92 0
11 31 -92 0
11 90 -92 0
31 90 -92 0
11 -92 -93 0
31 -92 -93 0
90 -92 -93 0
-11 92 93 0
-31 92 93 0
-90 92 93 0
-11 -31 -90 93 0
11 31 90 -93 0
-11 -28 94 0
-28 -92 94 0
-11 -92 94 0
11 28 -94 0
28 92 -94 0
11 92 -94 0
28 -94 -95 0
11 -94 -95 0
92 -94 -95 0
-28 94 95 0
-11 94 95 0
-92 94 95 0
-11 -28 -92 95 0
11 28 92 -95 0
-6 -28 96 0
-6 -94 96 0
-28 -94 96 0
6 28 -96 0
6 94 -96 0
28 94 -96 0
6 -96 -97 0
28 -96 -97 0
94 -96 -97 0
-6 96 97 0
-28 96 97 0
-94 96 97 0
-6 -28 -94 97 0
6 28 94 -97 0
-6 -25 98 0
-25 -96 98 0
-6 -96 98 0
6 25 -98 0
25 96 -98 0
6 96 -98 0
25 -98 -99 0
6 -98 -99 0
96 -98 -99 0
-25 98 99 0
-6 98 99 0
-96 98 99 0
-6 -25 -96 99 0
6 25 96 -99 0
-25 -85 100 0
-85 -98 100 0
-25 -98 100 0
25 85 -100 0
85 98 -100 0
25 98 -100 0
85 -100 -101 0
25 -100 -101 0
98 -100 -101 0
-85 100 101 0
-25 100 101 0
-98 100 101 0
-25 -85 -98 101 0
25 85 98 -101 0
85 -102 0
100 -102 0
-85 -100 102 0
-85 -100 -103 0
85 100 -103 0
-85 100 103 0
85 -100 103 0
95 -104 0
34 -104 0
-34 -95 104 0
-34 -95 -105 0
34 95 -105 0
34 -95 105 0
-34 95 105 0
-17 -97 106 0
-97 -104 106 0
-17 -104 106 0
17 97 -106 0
97 104 -106 0
17 104 -106 0
97 -106 -107 0
17 -106 -107 0
104 -106 -107 0
-97 106 107 0
-17 106 107 0
-104 106 107 0
-17 -97 -104 107 0
17 97 104 -107 0
-31 -99 108 0
-99 -106 108 0
-31 -106 108 0
31 99 -108 0
99 106 -108 0
31 106 -108 0
99 -108 -109 0
31 -108 -109 0
106 -108 -109 0
-99 108 109 0
-31 108 109 0
-106 108 109 0
-31 -99 -106 109 0
31 99 106 -109 0
-11 -101 110 0
-101 -108 110 0
-11 -108 110 0
11 101 -110 0
101 108 -110 0
11 108 -110 0
101 -110 -111 0
11 -110 -111 0
108 -110 -111 0
-101 110 111 0
-11 110 111 0
-108 110 111 0
-11 -101 -108 111 0
11 101 108 -111 0
-28 -103 112 0
-103 -110 112 0
-28 -110 112 0
28 103 -112 0
103 110 -112 0
28 110 -112 0
103 -112 -113 0
28 -112 -113 0
110 -112 -113 0
-103 112 113 0
-28 112 113 0
-110 112 113 0
-28 -103 -110 113 0
28 103 110 -113 0
-6 -102 114 0
-102 -112 114 0
-6 -112 114 0
6 102 -114 0
102 112 -114 0
6 112 -114 0
102 -114 -115 0
6 -114 -115 0
112 -114 -115 0
-102 114 115 0
-6 114 115 0
-112 114 115 0
-6 -102 -112 115 0
6 102 112 -115 0
25 -116 0
114 -116 0
-25 -114 116 0
-25 -114 -117 0
25 114 -117 0
-25 114 117 0
25 -114 117 0
-67 85 0
-67 116 0
67 -85 -116 0
-62 -85 -116 0
-62 85 116 0
62 -85 116 0
62 85 -116 0
-34 -57 0
-57 -89 0
34 57 89 0
34 -50 89 0
-34 -50 -89 0
-34 50 89 0
34 50 -89 0
-44 57 0
-44 -91 0
44 -57 91 0
-39 -57 91 0
-39 57 -91 0
39 57 91 0
39 -57 -91 0
44 -64 0
-64 -93 0
-44 64 93 0
-35 -44 93 0
-35 44 -93 0
35 44 93 0
35 -44 -93 0
-18 64 0
-18 -105 0
18 -64 105 0
-32 -64 105 0
-32 64 -105 0
32 64 105 0
32 -64 -105 0
-12 18 0
-12 -107 0
12 -18 107 0
-18 -29 107 0
18 -29 -107 0
18 29 107 0
-18 29 -107 0
-7 12 0
-7 -109 0
7 -12 109 0
-12 -26 109 0
12 -26 -109 0
12 26 109 0
-12 26 -109 0
7 -86 0
-86 -111 0
-7 86 111 0
-7 111 -118 0
7 -111 -118 0
7 111 118 0
-7 -111 118 0
86 -119 0
-113 -119 0
-86 113 119 0
-86 113 -120 0
86 -113 -120 0
86 113 120 0
-86 -113 120 0
119 -121 0
-115 -121 0
115 -119 121 0
115 -119 -122 0
-115 119 -122 0
115 119 122 0
-115 -119 122 0
121 -123 0
-117 -123 0
117 -121 123 0
117 -121 -124 0
-117 121 -124 0
117 121 124 0
-117 -121 124 0
123 -125 0
-62 -125 0
62 -123 125 0
62 -123 -126 0
-62 123 -126 0
62 123 126 0
-62 -123 126 0
125 -127 0
-67 -127 0
67 -125 127 0
67 -125 -128 0
-67 125 -128 0
67 125 128 0
-67 -125 128 0
66 -129 0
34 -129 0
-34 -66 129 0
34 -66 0
-34 66 0
-61 -89 130 0
-61 -129 130 0
-89 -129 130 0
61 89 -130 0
61 129 -130 0
89 129 -130 0
-61 130 0
-89 130 0
-129 130 0
-61 -89 -129 0
-71 -91 131 0
-71 -130 131 0
-91 -130 131 0
71 91 -131 0
71 130 -131 0
91 130 -131 0
71 -131 0
91 -131 0
130 -131 0
71 91 130 0
53 -73 -93 0
53 -73 -131 0
53 -93 -131 0
-53 73 93 0
-53 73 131 0
-53 93 131 0
53 -73 0
53 -93 0
53 -131 0
-73 -93 -131 0
42 -75 -105 0
42 -53 -75 0
42 -53 -105 0
-42 75 105 0
-42 53 75 0
-42 53 105 0
-42 75 0
-42 105 0
-42 53 0
53 75 105 0
55 -77 -107 0
-42 55 -77 0
-42 55 -107 0
-55 77 107 0
42 -55 77 0
42 -55 107 0
55 -77 0
55 -107 0
-42 55 0
-42 -77 -107 0
46 -79 -109 0
46 -55 -79 0
46 -55 -109 0
-46 79 109 0
-46 55 79 0
-46 55 109 0
46 -79 0
46 -109 0
46 -55 0
-55 -79 -109 0
59 -81 -111 0
-46 59 -81 0
-46 59 -111 0
-59 81 111 0
46 -59 81 0
46 -59 111 0
59 -81 0
59 -111 0
-46 59 0
-46 -81 -111 0
4 -68 -113 0
4 -59 -68 0
4 -59 -113 0
-4 68 113 0
-4 59 68 0
-4 59 113 0
4 -68 0
4 -113 0
4 -59 0
-59 -68 -113 0
3 -60 -115 0
3 -4 -60 0
3 -4 -115 0
-3 60 115 0
-3 4 60 0
-3 4 115 0
3 -60 0
3 -115 0
3 -4 0
-4 -60 -115 0
2 -65 -117 0
2 -3 -65 0
2 -3 -117 0
-2 65 117 0
-2 3 65 0
-2 3 117 0
2 -65 0
2 -117 0
2 -3 0
-3 -65 -117 0
-1 62 0
-1 2 0
1 -2 -62 0
2 -62 0
-2 62 0
-1 -67 0
1 -67 0
-1 67 0
